(declare-const delta_param1 Int)
(declare-const delta_j Int)
(declare-const delta_param1@width Int)
(declare-const delta_i Int)
(declare-const delta_param0 Int)
(declare-const delta_param2 Int)
(declare-const delta_param2@width Int)
(declare-const delta_param1@pos Int)
(declare-const delta_k Int)
(declare-const delta_param0@width Int)
(declare-const delta_param0@pos Int)
(declare-const delta_param2@pos Int)
(assert (exists
         ((|i'?1| Int) (|k'?2| Int) (|param0'?3| Int) (|param1'?4| Int)
            (|param2'?5| Int) (|param0@pos'?6| Int) (|param1@pos'?7| Int)
            (|param2@pos'?8| Int) (|param0@width'?9| Int)
            (|param1@width'?10| Int) (|param2@width'?11| Int)
            (|S1,0?12| Real) (|j'?13| Int) (KSUM1?14 Int) (|K1,0?15| Int)
            (K?16 Int) (|j'?17| Int) (|param2@width'?18| Int)
            (|param1@width'?19| Int) (|param0@width'?20| Int)
            (|param2@pos'?21| Int) (|param1@pos'?22| Int)
            (|param0@pos'?23| Int) (|param2'?24| Int) (|param1'?25| Int)
            (|param0'?26| Int) (|k'?27| Int) (np?28 Int) (k?29 Int)
            (nq?30 Int) (j?31 Int) (nr?32 Int) (i?33 Int)
            (param2@width?34 Int) (param2@pos?35 Int) (param2?36 Int)
            (param1?37 Int) (param1@pos?38 Int) (param1@width?39 Int)
            (param0?40 Int) (param0@pos?41 Int) (param0@width?42 Int))
         (and (<= (- i?33) 0) (< (+ (- nr?32) i?33) 0) (<= (- K?16) 0)
                (<= (- |K1,0?15|) 0) (= (+ |K1,0?15| (- K?16)) 0)
                (<= (+ KSUM1?14 (- K?16)) 0)
                (= (+ (- |S1,0?12|) |j'?13| (- |K1,0?15|)) 0)
                (= (+ (- KSUM1?14) |K1,0?15|) 0) (= |S1,0?12| 0)
                (or (and (= K?16 0)
                           (= (+ (- |param2@width'?11|) param2@width?34) 0)
                           (= (+ (- |param1@width'?10|) param1@width?39) 0)
                           (= (+ (- |param0@width'?9|) param0@width?42) 0)
                           (= (+ (- |param2@pos'?8|) param2@pos?35) 0)
                           (= (+ (- |param1@pos'?7|) param1@pos?38) 0)
                           (= (+ (- |param0@pos'?6|) param0@pos?41) 0)
                           (= (+ (- |param2'?5|) param2?36) 0)
                           (= (+ (- |param1'?4|) param1?37) 0)
                           (= (+ (- |param0'?3|) param0?40) 0)
                           (= (+ (- |k'?2|) k?29) 0) (= (- |j'?13|) 0))
                      (and (<= (+ (- K?16) 1) 0) (<= (+ (- nq?30) 1) 0)
                             (<= (+ (mod i?33 20) -19) 0)
                             (<= (- (mod i?33 20)) 0) (<= (- i?33) 0)
                             (<= (+ (- nq?30) |j'?13|) 0)
                             (<= (+ (mod i?33 20) -19) 0)
                             (<= (+ np?28 (- |k'?2|)) 0) (<= (- |k'?2|) 0)
                             (<= (- (mod i?33 20)) 0) (<= (- i?33) 0)
                             (<= (+ (- |j'?13|) 1) 0)))
                (= (+ |j'?13| (- K?16)) 0) (<= (- K?16) 0) (<= (- |j'?13|) 0)
                (<= (- i?33) 0) (<= (+ nq?30 (- |j'?13|)) 0)
                (= (+ |param2@width'?18| (- |param2@width'?11|)) 0)
                (= (+ |param1@width'?19| (- |param1@width'?10|)) 0)
                (= (+ |param0@width'?20| (- |param0@width'?9|)) 0)
                (= (+ |param2@pos'?21| (- |param2@pos'?8|)) 0)
                (= (+ |param1@pos'?22| (- |param1@pos'?7|)) 0)
                (= (+ |param0@pos'?23| (- |param0@pos'?6|)) 0)
                (= (+ |param2'?24| (- |param2'?5|)) 0)
                (= (+ |param1'?25| (- |param1'?4|)) 0)
                (= (+ |param0'?26| (- |param0'?3|)) 0)
                (= (+ |k'?27| (- |k'?2|)) 0) (= (+ |j'?17| (- |j'?13|)) 0)
                (= (+ |i'?1| (- i?33) -1) 0) (= delta_i (+ |i'?1| (- i?33)))
                (= delta_j (+ |j'?17| (- j?31)))
                (= delta_k (+ |k'?27| (- k?29)))
                (= delta_param0 (+ |param0'?26| (- param0?40)))
                (= delta_param1 (+ |param1'?25| (- param1?37)))
                (= delta_param2 (+ |param2'?24| (- param2?36)))
                (= delta_param0@pos (+ |param0@pos'?23| (- param0@pos?41)))
                (= delta_param1@pos (+ |param1@pos'?22| (- param1@pos?38)))
                (= delta_param2@pos (+ |param2@pos'?21| (- param2@pos?35)))
                (= delta_param0@width (+ |param0@width'?20|
                                           (- param0@width?42)))
                (= delta_param1@width (+ |param1@width'?19|
                                           (- param1@width?39)))
                (= delta_param2@width (+ |param2@width'?18|
                                           (- param2@width?34))))))
(check-sat)
